RT is False
Default write of storage_offers_DA.csv just to have a file (but constraint should be inactive)
Reading model...
...model read.
creating competitive generators file...
...competitive generators recorded.
Loading data...
.. day-ahead data with real-time VRE data read.
Compiling instance...
...instance created.
Creating Offer Mitigation (model will solve as dispatch if TRUE)...
Solving...

Welcome to IBM(R) ILOG(R) CPLEX(R) Interactive Optimizer 12.9.0.0
  with Simplex, Mixed Integer & Barrier Optimizers
5725-A06 5725-A29 5724-Y48 5724-Y49 5724-Y54 5724-Y55 5655-Y21
Copyright IBM Corp. 1988, 2019.  All Rights Reserved.

Type 'help' for a list of available commands.
Type 'help' followed by a command name for more
information on commands.

CPLEX> Logfile 'cplex.log' closed.
Logfile 'C:\Users\llavin\Desktop\test919\logs\tmppnz7k5ks.cplex.log' open.
CPLEX> New value for parallel optimization mode: -1
CPLEX> New value for mixed integer optimality gap tolerance: 0.01
CPLEX> New value for integrality tolerance: 1e-09
CPLEX> New value for feasibility tolerance: 0.01
CPLEX> New value for deterministic time limit in ticks: 75000
CPLEX> Problem 'C:\Users\llavin\Desktop\test919\logs\tmplkyefb8d.pyomo.lp' read.
Read time = 0.06 sec. (3.04 ticks)
CPLEX> Problem name         : C:\Users\llavin\Desktop\test919\logs\tmplkyefb8d.pyomo.lp
Objective sense      : Minimize
Variables            :   26081  [Nneg: 1,  Box: 21616,  Free: 4464]
Objective nonzeros   :    2496
Linear constraints   :   27515  [Less: 14006,  Greater: 4416,  Equal: 9093]
  Nonzeros           :   89219
  RHS nonzeros       :   12265

Variables            : Min LB: -5000.000        Max UB: 1000000.       
Objective nonzeros   : Min   : 15.73158         Max   : 124.0997       
Linear constraints   :
  Nonzeros           : Min   : 0.8500000        Max   : 3000.000       
  RHS nonzeros       : Min   : 0.05833333       Max   : 5000.000       
CPLEX> CPXPARAM_Parallel                                -1
CPXPARAM_Simplex_Tolerances_Feasibility          0.01
CPXPARAM_DetTimeLimit                            75000
CPXPARAM_MIP_Tolerances_MIPGap                   0.01
CPXPARAM_MIP_Tolerances_Integrality              1.0000000000000001e-09
Parallel mode: opportunistic, using up to 32 threads for concurrent optimization.
Tried aggregator 1 time.
LP Presolve eliminated 21377 rows and 15487 columns.
Aggregator did 746 substitutions.
Reduced LP has 5392 rows, 9848 columns, and 31786 nonzeros.
Presolve time = 0.06 sec. (30.20 ticks)
Symmetry aggregator did 5563 additional substitutions.

Iteration log . . .
Iteration:     1   Dual objective     =             0.000000
Perturbation started.
Iteration:   101   Dual objective     =             0.000000
Iteration:   334   Dual objective     =             1.385816
Iteration:   609   Dual objective     =             1.964253
Iteration:   880   Dual objective     =             2.103697
Iteration:  1093   Dual objective     =             2.216928
Iteration:  1366   Dual objective     =             2.266416
Iteration:  1616   Dual objective     =             2.295155
Iteration:  1846   Dual objective     =             2.320008
Iteration:  2066   Dual objective     =         12405.195086
Iteration:  2263   Dual objective     =         33771.195270
Iteration:  2464   Dual objective     =        100726.881994
Iteration:  2737   Dual objective     =        108927.932051
Iteration:  3153   Dual objective     =        112310.794956
Removing perturbation.
Dual superbasis not built.
Using devex.

Primal simplex solved model.


Primal simplex - Optimal:  Objective =  1.1230873849e+05
Solution time =    0.16 sec.  Iterations = 1605 (1183)
Deterministic time = 79.54 ticks  (506.65 ticks/sec)

CPLEX> Solution written to file 'C:\Users\llavin\Desktop\test919\logs\tmpg5fip7f2.cplex.sol'.
CPLEX> Exporting results... 
...storage offer mitigation file created
Converting model to MPEC...
...converted
NOTE: initial MIP solve with only storage competitive to get feasible solution
Solving...

Welcome to IBM(R) ILOG(R) CPLEX(R) Interactive Optimizer 12.9.0.0
  with Simplex, Mixed Integer & Barrier Optimizers
5725-A06 5725-A29 5724-Y48 5724-Y49 5724-Y54 5724-Y55 5655-Y21
Copyright IBM Corp. 1988, 2019.  All Rights Reserved.

Type 'help' for a list of available commands.
Type 'help' followed by a command name for more
information on commands.

CPLEX> Logfile 'cplex.log' closed.
Logfile 'C:\Users\llavin\Desktop\test919\logs\tmp9di7eac0.cplex.log' open.
CPLEX> New value for parallel optimization mode: -1
CPLEX> New value for mixed integer optimality gap tolerance: 0.01
CPLEX> New value for integrality tolerance: 1e-09
CPLEX> New value for feasibility tolerance: 0.01
CPLEX> New value for deterministic time limit in ticks: 75000
CPLEX> Problem 'C:\Users\llavin\Desktop\test919\logs\tmphjfurxqo.pyomo.lp' read.
Read time = 0.23 sec. (14.78 ticks)
CPLEX> Problem name         : C:\Users\llavin\Desktop\test919\logs\tmphjfurxqo.pyomo.lp
Objective sense      : Maximize
Variables            :   53805  [Nneg: 1,  Box: 22000,  Free: 4464,
                                 Binary: 27340]
Objective nonzeros   :    9023
Linear constraints   :  123205  [Less: 41346,  Greater: 59096,  Equal: 22763]
  Nonzeros           :  291747
  RHS nonzeros       :   67485

Variables            : Min LB: -5000.000        Max UB: 1000000.       
Objective nonzeros   : Min   : 0.05833333       Max   : 2500.000       
Linear constraints   :
  Nonzeros           : Min   : 0.05833333       Max   : 1000000.       
  RHS nonzeros       : Min   : 0.05833333       Max   : 1000000.       
CPLEX> CPXPARAM_Parallel                                -1
CPXPARAM_Simplex_Tolerances_Feasibility          0.01
CPXPARAM_DetTimeLimit                            75000
CPXPARAM_MIP_Tolerances_MIPGap                   0.01
CPXPARAM_MIP_Tolerances_Integrality              1.0000000000000001e-09
Tried aggregator 3 times.
MIP Presolve eliminated 88657 rows and 18980 columns.
MIP Presolve added 3373 rows and 0 columns.
MIP Presolve modified 24858 coefficients.
Aggregator did 12985 substitutions.
Reduced MIP has 24936 rows, 21283 columns, and 71129 nonzeros.
Reduced MIP has 8412 binaries, 0 generals, 0 SOSs, and 0 indicators.
Presolve time = 0.30 sec. (173.48 ticks)
Probing fixed 390 vars, tightened 2865 bounds.
Probing time = 1.19 sec. (876.37 ticks)
Tried aggregator 2 times.
MIP Presolve eliminated 880 rows and 780 columns.
MIP Presolve modified 2207 coefficients.
Aggregator did 39 substitutions.
Reduced MIP has 24017 rows, 20464 columns, and 68472 nonzeros.
Reduced MIP has 8022 binaries, 0 generals, 0 SOSs, and 0 indicators.
Presolve time = 0.11 sec. (66.49 ticks)
Probing time = 0.05 sec. (16.06 ticks)
Clique table members: 6311.
MIP emphasis: balance optimality and feasibility.
MIP search method: dynamic search.
Parallel mode: opportunistic, using up to 32 threads.
Root relaxation solution time = 0.44 sec. (536.19 ticks)

        Nodes                                         Cuts/
   Node  Left     Objective  IInf  Best Integer    Best Bound    ItCnt     Gap

      0     0        0.0000   678                      0.0000     6659         
*     0+    0                            0.0000        0.0000             0.00%
      0     0        cutoff              0.0000        0.0000     6659    0.00%
Elapsed time = 2.98 sec. (2125.73 ticks, tree = 0.01 MB, solutions = 1)

Root node processing (before b&c):
  Real time             =    3.00 sec. (2127.68 ticks)
Parallel b&c, 32 threads:
  Real time             =    0.00 sec. (0.00 ticks)
  Sync time (average)   =    0.00 sec.
  Wait time (average)   =    0.00 sec.
                          ------------
Total (root+branch&cut) =    3.00 sec. (2127.68 ticks)

Solution pool: 1 solution saved.

MIP - Integer optimal solution:  Objective =  3.6507117329e-09
Solution time =    3.03 sec.  Iterations = 6659  Nodes = 0
Deterministic time = 2127.83 ticks  (701.79 ticks/sec)

CPLEX> Incumbent solution written to file 'C:\Users\llavin\Desktop\test919\logs\tmpm4m5dnde.cplex.sol'.
CPLEX> NOTE: no warmstart specified for MIP iteration, default behavior is true
NOTE: resolving with all competitive generators using storage-only solution to warmstart
Solving...

Welcome to IBM(R) ILOG(R) CPLEX(R) Interactive Optimizer 12.9.0.0
  with Simplex, Mixed Integer & Barrier Optimizers
5725-A06 5725-A29 5724-Y48 5724-Y49 5724-Y54 5724-Y55 5655-Y21
Copyright IBM Corp. 1988, 2019.  All Rights Reserved.

Type 'help' for a list of available commands.
Type 'help' followed by a command name for more
information on commands.

CPLEX> Logfile 'cplex.log' closed.
Logfile 'C:\Users\llavin\Desktop\test919\logs\tmpdg2nnq_o.cplex.log' open.
CPLEX> New value for parallel optimization mode: -1
CPLEX> New value for mixed integer optimality gap tolerance: 0.01
CPLEX> New value for integrality tolerance: 1e-09
CPLEX> New value for feasibility tolerance: 0.01
CPLEX> New value for deterministic time limit in ticks: 75000
CPLEX> Problem 'C:\Users\llavin\Desktop\test919\logs\tmp8ipsehb_.pyomo.lp' read.
Read time = 0.23 sec. (14.81 ticks)
CPLEX> MIP start file 'C:\Users\llavin\Desktop\test919\logs\tmpwfb8yvz8.cplex.mst' read.
CPLEX> Problem name         : C:\Users\llavin\Desktop\test919\logs\tmp8ipsehb_.pyomo.lp
Objective sense      : Maximize
Variables            :   54525  [Nneg: 1,  Box: 22720,  Free: 4464,
                                 Binary: 27340]
Objective nonzeros   :    9719
Linear constraints   :  123205  [Less: 41346,  Greater: 59096,  Equal: 22763]
  Nonzeros           :  291747
  RHS nonzeros       :   67485

Variables            : Min LB: -5000.000        Max UB: 1000000.       
Objective nonzeros   : Min   : 0.05833333       Max   : 2500.000       
Linear constraints   :
  Nonzeros           : Min   : 0.05833333       Max   : 1000000.       
  RHS nonzeros       : Min   : 0.05833333       Max   : 1000000.       
CPLEX> CPXPARAM_Parallel                                -1
CPXPARAM_Simplex_Tolerances_Feasibility          0.01
CPXPARAM_DetTimeLimit                            75000
CPXPARAM_MIP_Tolerances_MIPGap                   0.01
CPXPARAM_MIP_Tolerances_Integrality              1.0000000000000001e-09
Warning:  No solution found from 1 MIP starts.
Retaining values of one MIP start for possible repair.
Tried aggregator 3 times.
MIP Presolve eliminated 88657 rows and 19700 columns.
MIP Presolve added 3373 rows and 0 columns.
MIP Presolve modified 24858 coefficients.
Aggregator did 12985 substitutions.
Reduced MIP has 24936 rows, 21283 columns, and 71129 nonzeros.
Reduced MIP has 8412 binaries, 0 generals, 0 SOSs, and 0 indicators.
Presolve time = 0.28 sec. (173.84 ticks)
Probing fixed 390 vars, tightened 2865 bounds.
Probing time = 1.19 sec. (876.37 ticks)
Tried aggregator 2 times.
MIP Presolve eliminated 880 rows and 780 columns.
MIP Presolve modified 2207 coefficients.
Aggregator did 39 substitutions.
Reduced MIP has 24017 rows, 20464 columns, and 68472 nonzeros.
Reduced MIP has 8022 binaries, 0 generals, 0 SOSs, and 0 indicators.
Presolve time = 0.11 sec. (66.50 ticks)
Probing time = 0.05 sec. (16.06 ticks)
Clique table members: 6311.
MIP emphasis: balance optimality and feasibility.
MIP search method: dynamic search.
Parallel mode: opportunistic, using up to 32 threads.
Root relaxation solution time = 0.38 sec. (274.64 ticks)

        Nodes                                         Cuts/
   Node  Left     Objective  IInf  Best Integer    Best Bound    ItCnt     Gap

      0     0   160857.0208  1663                 160857.0208     6748         
      0     0   157150.0282   532                   Cuts: 879     7150         
      0     0   156443.2178   422                   Cuts: 342     7336         
      0     0   156092.2975   399                   Cuts: 174     7430         
      0     0   156075.4880   363                   Cuts: 106     7474         
      0     0   156075.4880   332                    Cuts: 91     7511         
      0     0   156075.4880   319                    Cuts: 38     7529         
      0     0   156075.4880   311                    Cuts: 54     7543         
      0     0   155387.3739   263                    Cuts: 50     7591         
      0     0   155013.2197   262                    Cuts: 47     7618         
      0     0   154999.2869   264                    Cuts: 30     7629         
      0     0   154991.9805   263                    Cuts: 29     7638         
Repair heuristic found nothing.
      0    46    90910.4315   234                    Cuts: 38    13870         
Elapsed time = 11.22 sec. (6191.72 ticks, tree = 0.21 MB, solutions = 0)
    234    49    43244.7120   217                  90201.2668    18565         
    540   123    25567.9062   172                  88394.3871    30442         
    994   346    -2105.4135   170                  88394.3871    40306         
   1598   603   -15486.8933   145                  88394.3871    43658         
   2273  1082   -54215.0885   156                  88394.3871    52962         
   2916  1361     1038.3970   137                  79103.5267    58951         
   3813  2084    -6879.4006   153                  79103.5267    69604         
   5307  2129    -7268.5008   145                  79103.5267    69615         
   6400  3177    -1780.5586   114                  79103.5267    71759         
*  7432+ 5528                       -63968.2237    79103.5267           223.66%
Elapsed time = 24.94 sec. (8782.63 ticks, tree = 40.90 MB, solutions = 1)
   8846  5683   -12717.8218    66   -63968.2237    45370.9856    86696  170.93%
   8864  6740    infeasible         -63968.2237        0.0000   104118  100.00%
   9765   101   -34478.3416    53   -63968.2237        0.0000   105444  100.00%
*  9845    92      integral     0        0.0000        0.0000   106662    0.00%

GUB cover cuts applied:  1
Clique cuts applied:  4
Cover cuts applied:  29
Implied bound cuts applied:  18
Flow cuts applied:  330
Mixed integer rounding cuts applied:  23
Gomory fractional cuts applied:  51

Root node processing (before b&c):
  Real time             =    9.56 sec. (6155.36 ticks)
Parallel b&c, 32 threads:
  Real time             =   32.81 sec. (9801.61 ticks)
  Sync time (average)   =    1.57 sec.
  Wait time (average)   =    0.25 sec.
                          ------------
Total (root+branch&cut) =   42.38 sec. (15956.98 ticks)

Solution pool: 3 solutions saved.

MIP - Integer optimal solution:  Objective =  3.3760443330e-09
Solution time =   42.39 sec.  Iterations = 111425  Nodes = 10008
Deterministic time = 15957.13 ticks  (376.44 ticks/sec)

CPLEX> Incumbent solution written to file 'C:\Users\llavin\Desktop\test919\logs\tmpnt9hzagu.cplex.sol'.
CPLEX> Exporting results... 
